15 3 
4284	4284	4284	
78	247	253	
425	742	742	
869	141	176	
227	378	502	
914	438	765	
759	290	520	
377	685	1142	
82	247	300	
920	846	1604	
254	555	910	
150	52	90	
929	162	178	
136	178	235	
491	692	935	
609	59	84	
